33D32945 STP File, STP Format Version 1.0

SECTION Comment
Name    "Series B" 
Creator "A. M. Costa" 
Format  "Z.H. Fu and J. K. Hao"
Remark  "Sparse graph with random weights"
#TotalEdgeCost 567
#BudgetFraction 5
END 

SECTION Graph 
Nodes 50 
Edges 100 
Root 1
Budget 113
HopLimit 3
E 1 11 8 
E 1 28 8 
E 1 29 6 
E 1 32 8 
E 1 44 9 
E 2 4 8 
E 2 10 10 
E 2 22 6 
E 2 31 3 
E 2 36 10 
E 2 42 9 
E 3 12 6 
E 3 24 4 
E 3 25 4 
E 3 30 5 
E 3 48 6 
E 4 7 9 
E 4 8 7 
E 4 9 7 
E 4 25 10 
E 4 28 9 
E 4 36 4 
E 4 50 1 
E 5 20 4 
E 5 34 10 
E 6 9 2 
E 6 13 1 
E 6 23 6 
E 6 27 5 
E 6 28 6 
E 6 33 3 
E 7 8 3 
E 7 13 3 
E 7 19 9 
E 8 13 4 
E 8 32 8 
E 8 44 6 
E 8 45 9 
E 9 17 5 
E 9 49 9 
E 10 33 9 
E 10 38 10 
E 10 41 7 
E 10 42 8 
E 11 18 7 
E 11 29 10 
E 12 22 7 
E 12 40 2 
E 12 49 1 
E 13 37 6 
E 13 40 7 
E 14 16 1 
E 14 27 4 
E 14 41 2 
E 14 48 7 
E 15 17 10 
E 15 33 5 
E 15 35 7 
E 16 36 2 
E 16 48 5 
E 16 49 6 
E 18 41 5 
E 18 45 5 
E 19 24 1 
E 19 44 7 
E 20 31 3 
E 20 33 8 
E 21 27 2 
E 22 27 10 
E 22 29 1 
E 22 41 6 
E 22 47 9 
E 23 35 6 
E 24 36 6 
E 24 42 3 
E 25 44 4 
E 26 33 2 
E 26 41 8 
E 27 49 5 
E 28 45 7 
E 29 33 5 
E 29 37 10 
E 29 50 4 
E 30 43 2 
E 30 47 4 
E 31 42 1 
E 32 38 2 
E 32 44 1 
E 33 34 10 
E 33 41 7 
E 33 42 6 
E 35 40 1 
E 35 44 3 
E 37 38 1 
E 37 45 10 
E 39 48 5 
E 41 44 9 
E 42 46 8 
E 43 49 1 
E 46 50 6 
END 

SECTION ProfitableVertices 
ProfitableVertices 25 
PV 1 29
PV 5 3
PV 6 94
PV 7 88
PV 9 20
PV 10 5
PV 11 30
PV 12 77
PV 17 4
PV 18 60
PV 19 65
PV 21 84
PV 23 57
PV 28 70
PV 30 38
PV 35 73
PV 38 15
PV 42 85
PV 43 57
PV 44 28
PV 46 93
PV 47 77
PV 48 5
PV 49 38
PV 50 74
END 

EOF 
